>compound EA33002987
>parentmass 188.0818
>ionization [M+H]+
#formula C10H9N3O
>rt 306.000000
>profile orbitrap
#smiles_iso c(ccc1C(=NN=C2C)C(=O)N2)cc1
#smiles_can None
#inchikey OUSYWCQYMPDAEO-UHFFFAOYSA-N
#pubchem_id 135413636
#mb_accession EA000412,EA000414,EA000401,EA000413,EA000408,EA000409,EA000405,EA000402,EA000406,EA000404,EA000411,EA000403,EA000407,EA000410

>collision 75 % (nominal)
53.038500 45162.000000
57.044700 107737.700000
65.038600 75495.500000
77.038600 776143.600000
85.039700 30056.800000
91.054200 231428.700000
92.049500 477179.000000
95.049200 121974.900000
103.041700 10835.200000
104.049500 1613768.500000
105.044700 239560.200000
105.069900 31648.200000
110.060000 7794.300000
119.060400 1400323.300000
130.065300 39671.700000
131.073000 49801.600000
160.087100 3776162.500000
188.081800 297088.800000

>collision 35 % (nominal)
77.038700 25682.100000
85.039700 87826.600000
104.049500 397727.400000
119.060500 783413.000000
142.065100 7724.000000
147.055500 7607.600000
160.087100 5620505.400000
188.081800 369347.700000

>collision 35 % (nominal)
77.038500 63034.200000
85.039600 204249.900000
104.049500 867945.500000
119.060400 1525675.900000
147.055500 36406.700000
160.087100 11464205.700000
188.082000 990072.700000

>collision 90 % (nominal)
53.038500 68955.700000
57.044700 127782.900000
65.038600 131136.600000
77.038700 1154627.600000
81.033500 16458.600000
85.039500 10855.400000
91.054200 145704.800000
92.049500 467172.300000
95.049200 149454.100000
103.041600 21306.800000
104.049500 1361775.000000
105.044700 289256.000000
105.070000 17003.000000
110.060100 10678.000000
119.060400 860161.200000
130.040100 9581.500000
130.065100 65075.400000
131.072900 33477.600000
142.065300 12987.100000
160.087000 1214855.600000
188.082300 40651.800000

>collision 15 % (nominal)
160.086900 60363.700000
188.082100 14525193.800000

>collision 30 % (nominal)
85.039700 14641.700000
104.049500 61876.200000
119.060500 89693.200000
160.087000 1107401.700000
188.082000 13781028.100000

>collision 60 % (nominal)
53.038400 37529.300000
57.044700 114026.300000
65.038600 31281.600000
77.038600 408973.400000
85.039700 85110.100000
91.054200 137824.000000
92.049500 267123.600000
95.049300 38844.100000
104.049600 1898682.300000
105.044600 91341.100000
119.060500 1815524.800000
131.072500 30100.900000
160.087100 9590204.100000
188.081700 2634884.000000

>collision 15 % (nominal)
188.082100 16988637.300000

>collision 75 % (nominal)
53.038600 68234.900000
57.044800 182737.400000
65.038600 130382.100000
77.038700 1192594.700000
85.039800 51945.600000
91.054400 301928.900000
92.049600 706535.400000
95.049400 157234.100000
104.049600 2306078.900000
105.044800 358661.700000
105.070100 49339.500000
110.060000 27812.700000
119.060600 2062850.800000
130.065200 65574.400000
131.072900 72329.700000
160.087100 5119390.900000
188.082300 426503.300000

>collision 45 % (nominal)
77.038600 85594.800000
85.039700 98123.700000
92.049200 30472.000000
104.049600 660066.500000
105.045000 19515.200000
119.060500 691871.700000
147.055200 19430.700000
160.087200 7677523.900000
188.082100 10183625.500000

>collision 60 % (nominal)
57.044700 73102.400000
65.038600 30128.500000
77.038700 326522.100000
81.033400 10608.400000
85.039700 72472.700000
91.054300 145719.900000
92.049500 195231.500000
95.049200 33301.900000
104.049600 1375177.100000
105.044700 96977.300000
105.069900 31224.300000
119.060500 1373248.100000
131.073000 17953.800000
160.087100 7030746.300000
188.082100 2075925.000000

>collision 30 % (nominal)
77.038300 25928.700000
85.039400 21891.000000
104.049500 91209.100000
119.060500 119307.200000
160.087100 1368292.300000
188.082100 16468927.900000

>collision 90 % (nominal)
53.038600 111235.800000
57.044700 184147.500000
65.038600 234701.400000
77.038600 1785953.300000
91.054200 249666.400000
92.049500 762727.700000
95.049200 228068.000000
103.041900 26996.400000
104.049500 2017106.100000
105.044800 548547.100000
119.060400 1259416.300000
130.040000 23571.800000
130.065200 100367.200000
131.073400 45999.700000
160.087000 1824328.900000

>collision 45 % (nominal)
57.044800 8572.200000
77.038600 71735.300000
85.039700 63460.100000
91.054400 38954.000000
92.049600 21600.800000
104.049600 533732.100000
119.060500 603067.400000
160.087100 6101108.800000
188.082100 7927919.500000


