>compound AU51150706
>parentmass 321.0051
>ionization [M-H]-
>formula C11H12Cl2N2O5
>rt 340.932000
>profile qtof
#smiles_iso C1=CC(=CC=C1C(C(CO)NC(=O)C(Cl)Cl)O)[N+](=O)[O-]
#smiles_can C1=CC(=CC=C1C(C(CO)NC(=O)C(Cl)Cl)O)[N+](=O)[O-]
#inchikey WIIZWVCIJKGZOK-UHFFFAOYSA-N
#pubchem_id 298
#mb_accession AU230657,AU230658,AU230659,AU230660,AU230662

>ms2
121.029700 1008.000000
148.038200 360.000000
151.027200 3888.000000
152.035100 9916.000000
153.038300 760.000000
176.034400 2372.000000
177.040000 500.000000
194.045300 5304.000000
195.049300 772.000000
219.038700 516.000000
221.054400 388.000000
237.055400 872.000000
249.049500 1872.000000
257.033200 7324.000000
258.037400 1052.000000
259.027900 2288.000000
321.003700 9632.000000
322.007800 1692.000000
323.002800 6364.000000

>ms2
121.030200 2576.000000
122.030600 364.000000
148.039700 800.000000
151.027400 7020.000000
152.035100 10132.000000
153.038900 976.000000
159.034500 416.000000
176.035200 2008.000000
179.046900 344.000000
194.045100 544.000000
249.051700 492.000000
257.033800 492.000000

>ms2
121.029400 3180.000000
122.032300 408.000000
148.037800 508.000000
151.028000 3656.000000
152.033500 3420.000000
153.036600 496.000000

>ms2
121.029400 2504.000000
151.027000 1988.000000
152.034200 656.000000

>ms2
45.992500 1024.000000
82.946300 352.000000
121.030100 3772.000000
122.036000 324.000000
148.040100 428.000000
151.027100 5700.000000
152.036300 2740.000000
159.028900 332.000000
166.015500 384.000000
176.034300 556.000000

